knight.cnf
p cnf 168 1636
x  2 5 8 12 14 23 24 25 27 28 30 35 41 45 66 68 70 73 75 76 78 79 81 84 85 86 89 91 92 94 96 98 105 107 113 114 119 120 126 127 128 137 143 145 149 150 152 161 162 0
x  3 5 8 12 16 19 20 24 27 28 30 33 35 37 44 51 55 57 60 62 63 66 71 73 75 76 79 81 83 84 91 92 94 102 104 109 110 113 114 126 128 130 133 136 138 146 147 149 165 0
x  3 12 14 19 21 23 29 30 33 35 45 59 61 63 65 66 68 70 73 76 78 79 83 85 86 89 91 92 94 96 97 101 102 105 107 114 116 119 123 124 125 133 136 137 138 145 150 151 152 157 162 163 0
x  5 7 8 12 14 17 20 23 25 28 29 30 32 33 35 37 38 45 49 51 58 61 63 70 71 75 76 84 85 89 91 94 97 98 101 103 113 116 119 123 124 125 126 127 128 130 136 138 150 151 161 163 0
x  2 8 12 14 19 21 24 25 28 32 34 37 38 44 45 47 49 51 57 58 59 63 66 68 70 71 73 79 81 89 91 97 104 105 107 109 110 113 119 120 121 124 126 127 136 138 139 146 150 152 162 163 165 0
x  11 12 14 24 27 28 30 31 32 33 34 35 41 44 45 49 51 55 58 60 62 63 66 70 76 78 79 81 83 86 89 92 96 97 98 100 101 102 104 107 116 119 120 123 125 126 127 128 130 133 136 138 143 145 146 147 149 151 152 157 163 0
x  5 11 19 21 23 24 25 30 32 37 38 41 44 45 47 59 60 63 66 68 70 71 73 76 78 79 83 84 89 92 96 97 100 101 103 104 110 113 114 117 119 126 128 143 145 146 147 151 161 0
x  5 7 8 11 12 14 19 21 23 24 25 27 33 34 35 41 45 47 55 57 58 59 61 65 68 71 73 75 81 84 86 89 91 94 97 103 114 119 120 121 123 124 125 126 127 128 133 136 137 138 139 143 146 151 152 161 162 0
x  2 5 7 8 11 16 17 20 24 25 28 31 32 33 37 38 44 47 51 55 58 59 60 61 63 78 79 83 85 86 89 91 97 98 100 101 104 107 110 114 120 121 123 124 125 126 127 130 136 143 145 149 152 161 162 165 0
x  2 11 19 20 21 23 25 27 29 31 32 33 34 38 41 45 47 51 55 58 60 61 70 71 73 75 78 83 85 86 91 94 97 98 100 102 103 104 110 113 119 121 123 126 128 136 139 145 147 149 152 0
x  3 5 7 12 16 21 25 28 31 33 35 37 45 47 57 59 65 66 73 76 78 81 89 91 92 94 96 101 103 107 114 116 123 124 125 126 127 128 130 139 145 147 149 150 151 157 163 165 0
x  3 5 7 16 20 23 25 28 38 45 49 55 57 58 60 65 68 73 75 78 79 83 89 96 98 100 101 102 103 104 107 109 110 116 117 120 121 123 126 127 128 136 137 145 146 149 151 162 163 0
x  11 12 17 19 24 25 27 28 29 32 34 35 41 45 47 51 57 58 60 61 62 63 65 66 68 73 79 81 84 86 89 91 94 96 97 98 101 102 103 109 114 116 117 123 124 126 127 128 133 138 145 146 147 149 161 162 163 0
x  2 3 7 12 14 17 19 21 29 31 35 37 41 49 57 59 60 65 66 68 70 71 73 75 76 78 79 83 86 89 94 96 97 98 102 104 107 110 116 120 124 125 128 130 136 143 145 146 147 161 0
x  12 21 24 25 30 31 35 41 44 45 47 51 57 58 59 60 61 63 65 73 75 76 81 84 85 91 94 97 101 104 107 109 110 113 114 119 120 121 123 126 130 133 137 139 145 146 147 150 157 162 0
x  2 5 7 8 14 16 17 19 21 25 28 29 31 32 33 35 37 41 45 47 49 51 55 58 60 66 70 75 79 81 86 89 92 96 97 101 110 116 117 119 120 123 125 128 130 133 137 138 139 145 149 151 161 163 0
x  3 5 8 17 20 25 29 30 31 34 37 38 44 45 55 58 59 61 63 71 75 81 86 96 97 98 100 101 102 103 105 109 110 114 116 117 120 121 124 128 133 138 139 146 152 157 162 165 0
x  2 3 5 7 16 19 21 23 24 25 27 29 30 31 33 35 37 38 41 45 47 49 51 57 61 63 65 66 73 75 78 79 83 85 91 96 98 101 103 104 105 109 110 113 114 117 121 124 125 128 151 152 157 161 165 0
x  2 11 14 16 20 21 23 24 25 31 34 37 38 41 44 45 51 55 57 59 60 63 70 71 73 75 78 83 84 85 89 101 102 104 110 113 117 120 124 126 127 130 133 137 138 146 147 150 157 161 162 163 165 0
x  2 3 5 7 12 17 20 23 24 27 28 29 30 31 32 33 34 35 44 45 47 55 59 62 63 65 68 73 75 78 79 81 84 86 98 100 101 102 104 109 110 113 123 124 128 130 137 138 145 149 150 152 157 161 162 163 165 0
x  2 3 5 7 19 21 23 24 28 29 31 32 33 34 41 44 45 58 59 62 68 70 71 73 76 79 84 85 89 96 97 98 101 103 105 114 116 117 119 121 127 137 138 139 143 145 146 149 150 152 157 162 0
x  2 3 8 11 17 19 24 27 29 30 33 38 41 44 49 55 58 60 61 62 65 66 70 73 79 84 86 89 92 98 100 101 103 107 109 110 113 117 119 120 123 125 128 130 137 138 149 151 157 163 0
x  3 5 7 8 17 19 20 21 24 25 29 31 32 33 37 38 41 49 57 58 62 66 73 76 79 84 86 91 96 98 102 103 104 114 116 117 119 121 123 124 128 130 133 136 138 139 143 147 149 151 162 163 165 0
x  3 5 8 11 16 24 25 27 30 32 33 34 37 38 41 44 57 65 68 71 73 79 83 84 96 98 101 103 104 107 110 116 117 120 121 123 124 136 139 143 149 151 152 162 165 0
x  2 8 12 14 19 20 23 24 28 30 32 37 41 49 51 58 59 60 61 62 63 65 66 70 75 78 83 85 86 91 92 96 101 103 104 107 110 116 117 120 127 128 133 136 138 139 146 149 150 151 157 161 0
x  5 8 11 12 14 24 27 28 29 30 31 32 35 37 51 58 59 63 65 66 68 70 71 73 75 83 92 97 98 101 102 103 107 109 114 119 121 123 124 127 139 147 161 0
x  2 3 7 11 14 16 17 19 20 21 23 24 25 27 28 30 31 32 33 35 37 47 59 60 63 65 68 71 73 76 78 79 83 84 91 94 96 97 101 102 105 109 110 114 117 119 120 125 133 137 139 145 146 149 151 152 157 161 163 0
x  2 7 8 11 12 16 19 20 23 24 27 28 30 35 37 38 41 45 47 49 55 59 60 61 63 66 71 75 76 84 89 91 92 96 98 100 103 107 109 110 114 117 119 123 124 125 126 130 136 138 139 145 146 147 151 152 162 163 0
x  3 5 8 14 16 19 23 27 29 30 31 32 33 35 37 45 47 51 55 66 70 71 73 75 84 85 86 98 100 101 102 104 109 110 113 117 121 123 126 127 130 138 143 146 149 151 157 163 165 0
x  5 7 8 11 12 29 31 44 49 57 58 59 62 65 66 71 78 81 83 85 89 91 94 96 98 100 101 103 104 116 117 119 120 121 123 124 128 130 133 136 137 146 147 149 150 152 157 161 162 163 0
x  3 8 11 12 17 20 21 23 25 27 28 29 31 34 35 37 47 49 61 63 73 84 85 91 92 96 97 98 103 104 114 120 124 125 127 128 130 136 138 150 152 157 162 163 165 0
x  3 11 12 14 16 17 24 25 28 29 30 34 35 49 55 57 63 65 66 68 71 83 84 85 86 89 91 96 97 98 100 101 105 107 109 110 114 123 124 125 126 127 128 130 136 139 143 146 151 152 163 165 0
x  2 3 7 11 14 23 24 28 30 31 35 41 47 60 65 71 73 76 78 79 81 84 85 89 91 94 96 97 100 104 105 107 109 114 116 117 120 126 136 137 138 145 147 150 151 162 163 0
x  2 5 8 11 14 16 17 20 23 24 25 27 28 31 37 38 41 45 57 58 61 62 65 68 71 73 78 83 85 86 89 92 94 96 101 102 103 104 110 113 117 121 123 124 125 126 130 133 138 139 143 145 146 147 149 151 152 162 163 165 0
x  2 3 5 8 20 21 23 28 29 33 34 35 38 44 45 58 59 61 65 66 70 71 73 75 79 81 84 86 96 98 103 105 107 110 113 116 117 119 121 124 128 133 136 137 143 146 149 150 151 157 163 165 0
x  3 8 11 14 19 28 29 31 33 34 37 41 44 45 57 58 60 61 65 68 73 75 78 79 83 84 85 86 89 96 100 102 104 105 107 109 110 123 124 125 128 130 133 136 137 138 146 147 162 165 0
x  2 5 7 8 11 12 14 23 24 25 27 29 30 37 44 45 49 57 58 60 65 70 73 75 81 86 89 92 94 97 98 100 103 107 109 110 113 116 120 123 124 126 130 136 137 138 146 149 150 151 157 161 163 0
x  3 8 17 20 21 23 27 28 30 31 35 37 38 45 47 49 51 55 57 58 59 60 63 65 66 70 73 76 78 79 84 85 86 89 91 92 94 98 102 103 104 107 113 116 120 127 128 130 136 137 138 139 146 147 149 151 157 162 163 165 0
x  2 7 8 11 16 21 23 24 27 28 29 30 34 38 44 49 51 55 58 60 65 68 70 71 75 76 78 89 91 92 94 96 101 103 104 107 109 110 114 117 120 121 123 124 125 126 128 136 137 138 143 145 146 147 151 152 157 162 165 0
x  2 3 11 14 17 20 21 23 24 25 29 30 49 57 58 62 63 71 78 79 84 85 86 91 92 97 100 104 107 109 113 114 117 119 121 123 127 136 137 139 143 145 147 149 150 152 162 0
-3 -4 -5 0
4 5 0
3 5 0
3 4 0
-6 -7 -8 0
-6 -7 -9 0
-6 -8 -9 0
-7 -8 -9 0
7 8 9 0
6 8 9 0
6 7 9 0
6 7 8 0
-10 -11 -12 0
-10 -11 -13 0
-10 -12 -13 0
-11 -12 -13 0
11 12 13 0
10 12 13 0
10 11 13 0
10 11 12 0
-14 -15 -16 0
-14 -15 -17 0
-14 -16 -17 0
-15 -16 -17 0
15 16 17 0
14 16 17 0
14 15 17 0
14 15 16 0
-18 -19 -20 0
-18 -19 -21 0
-18 -20 -21 0
-19 -20 -21 0
19 20 21 0
18 20 21 0
18 19 21 0
18 19 20 0
-22 -23 -24 0
23 24 0
22 24 0
22 23 0
-6 -27 -28 0
27 28 0
6 28 0
6 27 0
-10 -29 -30 0
-10 -29 -31 0
-10 -30 -31 0
-29 -30 -31 0
29 30 31 0
10 30 31 0
10 29 31 0
10 29 30 0
-1 -14 -32 0
-1 -14 -33 0
-1 -14 -34 0
-1 -14 -35 0
-1 -32 -33 0
-1 -32 -34 0
-1 -32 -35 0
-1 -33 -34 0
-1 -33 -35 0
-1 -34 -35 0
-14 -32 -33 0
-14 -32 -34 0
-14 -32 -35 0
-14 -33 -34 0
-14 -33 -35 0
-14 -34 -35 0
-32 -33 -34 0
-32 -33 -35 0
-32 -34 -35 0
-33 -34 -35 0
14 32 33 34 35 0
1 32 33 34 35 0
1 14 33 34 35 0
1 14 32 34 35 0
1 14 32 33 35 0
1 14 32 33 34 0
-3 -18 -36 0
-3 -18 -37 0
-3 -18 -38 0
-3 -18 -39 0
-3 -36 -37 0
-3 -36 -38 0
-3 -36 -39 0
-3 -37 -38 0
-3 -37 -39 0
-3 -38 -39 0
-18 -36 -37 0
-18 -36 -38 0
-18 -36 -39 0
-18 -37 -38 0
-18 -37 -39 0
-18 -38 -39 0
-36 -37 -38 0
-36 -37 -39 0
-36 -38 -39 0
-37 -38 -39 0
18 36 37 38 39 0
3 36 37 38 39 0
3 18 37 38 39 0
3 18 36 38 39 0
3 18 36 37 39 0
3 18 36 37 38 0
-7 -22 -40 0
-7 -22 -41 0
-7 -22 -42 0
-7 -22 -43 0
-7 -40 -41 0
-7 -40 -42 0
-7 -40 -43 0
-7 -41 -42 0
-7 -41 -43 0
-7 -42 -43 0
-22 -40 -41 0
-22 -40 -42 0
-22 -40 -43 0
-22 -41 -42 0
-22 -41 -43 0
-22 -42 -43 0
-40 -41 -42 0
-40 -41 -43 0
-40 -42 -43 0
-41 -42 -43 0
22 40 41 42 43 0
7 40 41 42 43 0
7 22 41 42 43 0
7 22 40 42 43 0
7 22 40 41 43 0
7 22 40 41 42 0
-11 -25 -44 0
-11 -25 -45 0
-11 -25 -46 0
-11 -25 -47 0
-11 -44 -45 0
-11 -44 -46 0
-11 -44 -47 0
-11 -45 -46 0
-11 -45 -47 0
-11 -46 -47 0
-25 -44 -45 0
-25 -44 -46 0
-25 -44 -47 0
-25 -45 -46 0
-25 -45 -47 0
-25 -46 -47 0
-44 -45 -46 0
-44 -45 -47 0
-44 -46 -47 0
-45 -46 -47 0
25 44 45 46 47 0
11 44 45 46 47 0
11 25 45 46 47 0
11 25 44 46 47 0
11 25 44 45 47 0
11 25 44 45 46 0
-15 -48 -49 0
-15 -48 -50 0
-15 -49 -50 0
-48 -49 -50 0
48 49 50 0
15 49 50 0
15 48 50 0
15 48 49 0
-19 -51 -52 0
51 52 0
19 52 0
19 51 0
-4 -32 -53 0
-4 -32 -54 0
-4 -53 -54 0
-32 -53 -54 0
32 53 54 0
4 53 54 0
4 32 54 0
4 32 53 0
-2 -8 -36 0
-2 -8 -55 0
-2 -8 -56 0
-2 -8 -57 0
-2 -36 -55 0
-2 -36 -56 0
-2 -36 -57 0
-2 -55 -56 0
-2 -55 -57 0
-2 -56 -57 0
-8 -36 -55 0
-8 -36 -56 0
-8 -36 -57 0
-8 -55 -56 0
-8 -55 -57 0
-8 -56 -57 0
-36 -55 -56 0
-36 -55 -57 0
-36 -56 -57 0
-55 -56 -57 0
8 36 55 56 57 0
2 36 55 56 57 0
2 8 55 56 57 0
2 8 36 56 57 0
2 8 36 55 57 0
2 8 36 55 56 0
-5 -12 -27 0
-5 -12 -40 0
-5 -12 -58 0
-5 -12 -59 0
-5 -12 -60 0
-5 -12 -61 0
-5 -27 -40 0
-5 -27 -58 0
-5 -27 -59 0
-5 -27 -60 0
-5 -27 -61 0
-5 -40 -58 0
-5 -40 -59 0
-5 -40 -60 0
-5 -40 -61 0
-5 -58 -59 0
-5 -58 -60 0
-5 -58 -61 0
-5 -59 -60 0
-5 -59 -61 0
-5 -60 -61 0
-12 -27 -40 0
-12 -27 -58 0
-12 -27 -59 0
-12 -27 -60 0
-12 -27 -61 0
-12 -40 -58 0
-12 -40 -59 0
-12 -40 -60 0
-12 -40 -61 0
-12 -58 -59 0
-12 -58 -60 0
-12 -58 -61 0
-12 -59 -60 0
-12 -59 -61 0
-12 -60 -61 0
-27 -40 -58 0
-27 -40 -59 0
-27 -40 -60 0
-27 -40 -61 0
-27 -58 -59 0
-27 -58 -60 0
-27 -58 -61 0
-27 -59 -60 0
-27 -59 -61 0
-27 -60 -61 0
-40 -58 -59 0
-40 -58 -60 0
-40 -58 -61 0
-40 -59 -60 0
-40 -59 -61 0
-40 -60 -61 0
-58 -59 -60 0
-58 -59 -61 0
-58 -60 -61 0
-59 -60 -61 0
12 27 40 58 59 60 61 0
5 27 40 58 59 60 61 0
5 12 40 58 59 60 61 0
5 12 27 58 59 60 61 0
5 12 27 40 59 60 61 0
5 12 27 40 58 60 61 0
5 12 27 40 58 59 61 0
5 12 27 40 58 59 60 0
-9 -16 -29 0
-9 -16 -44 0
-9 -16 -62 0
-9 -16 -63 0
-9 -16 -64 0
-9 -16 -65 0
-9 -29 -44 0
-9 -29 -62 0
-9 -29 -63 0
-9 -29 -64 0
-9 -29 -65 0
-9 -44 -62 0
-9 -44 -63 0
-9 -44 -64 0
-9 -44 -65 0
-9 -62 -63 0
-9 -62 -64 0
-9 -62 -65 0
-9 -63 -64 0
-9 -63 -65 0
-9 -64 -65 0
-16 -29 -44 0
-16 -29 -62 0
-16 -29 -63 0
-16 -29 -64 0
-16 -29 -65 0
-16 -44 -62 0
-16 -44 -63 0
-16 -44 -64 0
-16 -44 -65 0
-16 -62 -63 0
-16 -62 -64 0
-16 -62 -65 0
-16 -63 -64 0
-16 -63 -65 0
-16 -64 -65 0
-29 -44 -62 0
-29 -44 -63 0
-29 -44 -64 0
-29 -44 -65 0
-29 -62 -63 0
-29 -62 -64 0
-29 -62 -65 0
-29 -63 -64 0
-29 -63 -65 0
-29 -64 -65 0
-44 -62 -63 0
-44 -62 -64 0
-44 -62 -65 0
-44 -63 -64 0
-44 -63 -65 0
-44 -64 -65 0
-62 -63 -64 0
-62 -63 -65 0
-62 -64 -65 0
-63 -64 -65 0
16 29 44 62 63 64 65 0
9 29 44 62 63 64 65 0
9 16 44 62 63 64 65 0
9 16 29 62 63 64 65 0
9 16 29 44 63 64 65 0
9 16 29 44 62 64 65 0
9 16 29 44 62 63 65 0
9 16 29 44 62 63 64 0
-13 -20 -33 0
-13 -20 -48 0
-13 -20 -66 0
-13 -20 -67 0
-13 -20 -68 0
-13 -20 -69 0
-13 -33 -48 0
-13 -33 -66 0
-13 -33 -67 0
-13 -33 -68 0
-13 -33 -69 0
-13 -48 -66 0
-13 -48 -67 0
-13 -48 -68 0
-13 -48 -69 0
-13 -66 -67 0
-13 -66 -68 0
-13 -66 -69 0
-13 -67 -68 0
-13 -67 -69 0
-13 -68 -69 0
-20 -33 -48 0
-20 -33 -66 0
-20 -33 -67 0
-20 -33 -68 0
-20 -33 -69 0
-20 -48 -66 0
-20 -48 -67 0
-20 -48 -68 0
-20 -48 -69 0
-20 -66 -67 0
-20 -66 -68 0
-20 -66 -69 0
-20 -67 -68 0
-20 -67 -69 0
-20 -68 -69 0
-33 -48 -66 0
-33 -48 -67 0
-33 -48 -68 0
-33 -48 -69 0
-33 -66 -67 0
-33 -66 -68 0
-33 -66 -69 0
-33 -67 -68 0
-33 -67 -69 0
-33 -68 -69 0
-48 -66 -67 0
-48 -66 -68 0
-48 -66 -69 0
-48 -67 -68 0
-48 -67 -69 0
-48 -68 -69 0
-66 -67 -68 0
-66 -67 -69 0
-66 -68 -69 0
-67 -68 -69 0
20 33 48 66 67 68 69 0
13 33 48 66 67 68 69 0
13 20 48 66 67 68 69 0
13 20 33 66 67 68 69 0
13 20 33 48 67 68 69 0
13 20 33 48 66 68 69 0
13 20 33 48 66 67 69 0
13 20 33 48 66 67 68 0
-17 -23 -37 0
-17 -23 -51 0
-17 -23 -70 0
-17 -23 -71 0
-17 -23 -72 0
-17 -23 -73 0
-17 -37 -51 0
-17 -37 -70 0
-17 -37 -71 0
-17 -37 -72 0
-17 -37 -73 0
-17 -51 -70 0
-17 -51 -71 0
-17 -51 -72 0
-17 -51 -73 0
-17 -70 -71 0
-17 -70 -72 0
-17 -70 -73 0
-17 -71 -72 0
-17 -71 -73 0
-17 -72 -73 0
-23 -37 -51 0
-23 -37 -70 0
-23 -37 -71 0
-23 -37 -72 0
-23 -37 -73 0
-23 -51 -70 0
-23 -51 -71 0
-23 -51 -72 0
-23 -51 -73 0
-23 -70 -71 0
-23 -70 -72 0
-23 -70 -73 0
-23 -71 -72 0
-23 -71 -73 0
-23 -72 -73 0
-37 -51 -70 0
-37 -51 -71 0
-37 -51 -72 0
-37 -51 -73 0
-37 -70 -71 0
-37 -70 -72 0
-37 -70 -73 0
-37 -71 -72 0
-37 -71 -73 0
-37 -72 -73 0
-51 -70 -71 0
-51 -70 -72 0
-51 -70 -73 0
-51 -71 -72 0
-51 -71 -73 0
-51 -72 -73 0
-70 -71 -72 0
-70 -71 -73 0
-70 -72 -73 0
-71 -72 -73 0
23 37 51 70 71 72 73 0
17 37 51 70 71 72 73 0
17 23 51 70 71 72 73 0
17 23 37 70 71 72 73 0
17 23 37 51 71 72 73 0
17 23 37 51 70 72 73 0
17 23 37 51 70 71 73 0
17 23 37 51 70 71 72 0
-21 -26 -41 0
-21 -26 -74 0
-21 -26 -75 0
-21 -26 -76 0
-21 -41 -74 0
-21 -41 -75 0
-21 -41 -76 0
-21 -74 -75 0
-21 -74 -76 0
-21 -75 -76 0
-26 -41 -74 0
-26 -41 -75 0
-26 -41 -76 0
-26 -74 -75 0
-26 -74 -76 0
-26 -75 -76 0
-41 -74 -75 0
-41 -74 -76 0
-41 -75 -76 0
-74 -75 -76 0
26 41 74 75 76 0
21 41 74 75 76 0
21 26 74 75 76 0
21 26 41 75 76 0
21 26 41 74 76 0
21 26 41 74 75 0
-24 -45 -77 0
-24 -45 -78 0
-24 -77 -78 0
-45 -77 -78 0
45 77 78 0
24 77 78 0
24 45 78 0
24 45 77 0
-30 -58 -79 0
-30 -58 -80 0
-30 -79 -80 0
-58 -79 -80 0
58 79 80 0
30 79 80 0
30 58 80 0
30 58 79 0
-28 -34 -62 0
-28 -34 -81 0
-28 -34 -82 0
-28 -34 -83 0
-28 -62 -81 0
-28 -62 -82 0
-28 -62 -83 0
-28 -81 -82 0
-28 -81 -83 0
-28 -82 -83 0
-34 -62 -81 0
-34 -62 -82 0
-34 -62 -83 0
-34 -81 -82 0
-34 -81 -83 0
-34 -82 -83 0
-62 -81 -82 0
-62 -81 -83 0
-62 -82 -83 0
-81 -82 -83 0
34 62 81 82 83 0
28 62 81 82 83 0
28 34 81 82 83 0
28 34 62 82 83 0
28 34 62 81 83 0
28 34 62 81 82 0
-31 -38 -53 0
-31 -38 -66 0
-31 -38 -84 0
-31 -38 -85 0
-31 -38 -86 0
-31 -38 -87 0
-31 -53 -66 0
-31 -53 -84 0
-31 -53 -85 0
-31 -53 -86 0
-31 -53 -87 0
-31 -66 -84 0
-31 -66 -85 0
-31 -66 -86 0
-31 -66 -87 0
-31 -84 -85 0
-31 -84 -86 0
-31 -84 -87 0
-31 -85 -86 0
-31 -85 -87 0
-31 -86 -87 0
-38 -53 -66 0
-38 -53 -84 0
-38 -53 -85 0
-38 -53 -86 0
-38 -53 -87 0
-38 -66 -84 0
-38 -66 -85 0
-38 -66 -86 0
-38 -66 -87 0
-38 -84 -85 0
-38 -84 -86 0
-38 -84 -87 0
-38 -85 -86 0
-38 -85 -87 0
-38 -86 -87 0
-53 -66 -84 0
-53 -66 -85 0
-53 -66 -86 0
-53 -66 -87 0
-53 -84 -85 0
-53 -84 -86 0
-53 -84 -87 0
-53 -85 -86 0
-53 -85 -87 0
-53 -86 -87 0
-66 -84 -85 0
-66 -84 -86 0
-66 -84 -87 0
-66 -85 -86 0
-66 -85 -87 0
-66 -86 -87 0
-84 -85 -86 0
-84 -85 -87 0
-84 -86 -87 0
-85 -86 -87 0
38 53 66 84 85 86 87 0
31 53 66 84 85 86 87 0
31 38 66 84 85 86 87 0
31 38 53 84 85 86 87 0
31 38 53 66 85 86 87 0
31 38 53 66 84 86 87 0
31 38 53 66 84 85 87 0
31 38 53 66 84 85 86 0
-35 -42 -55 0
-35 -42 -70 0
-35 -42 -88 0
-35 -42 -89 0
-35 -42 -90 0
-35 -42 -91 0
-35 -55 -70 0
-35 -55 -88 0
-35 -55 -89 0
-35 -55 -90 0
-35 -55 -91 0
-35 -70 -88 0
-35 -70 -89 0
-35 -70 -90 0
-35 -70 -91 0
-35 -88 -89 0
-35 -88 -90 0
-35 -88 -91 0
-35 -89 -90 0
-35 -89 -91 0
-35 -90 -91 0
-42 -55 -70 0
-42 -55 -88 0
-42 -55 -89 0
-42 -55 -90 0
-42 -55 -91 0
-42 -70 -88 0
-42 -70 -89 0
-42 -70 -90 0
-42 -70 -91 0
-42 -88 -89 0
-42 -88 -90 0
-42 -88 -91 0
-42 -89 -90 0
-42 -89 -91 0
-42 -90 -91 0
-55 -70 -88 0
-55 -70 -89 0
-55 -70 -90 0
-55 -70 -91 0
-55 -88 -89 0
-55 -88 -90 0
-55 -88 -91 0
-55 -89 -90 0
-55 -89 -91 0
-55 -90 -91 0
-70 -88 -89 0
-70 -88 -90 0
-70 -88 -91 0
-70 -89 -90 0
-70 -89 -91 0
-70 -90 -91 0
-88 -89 -90 0
-88 -89 -91 0
-88 -90 -91 0
-89 -90 -91 0
42 55 70 88 89 90 91 0
35 55 70 88 89 90 91 0
35 42 70 88 89 90 91 0
35 42 55 88 89 90 91 0
35 42 55 70 89 90 91 0
35 42 55 70 88 90 91 0
35 42 55 70 88 89 91 0
35 42 55 70 88 89 90 0
-39 -46 -59 0
-39 -46 -74 0
-39 -46 -92 0
-39 -46 -93 0
-39 -46 -94 0
-39 -46 -95 0
-39 -59 -74 0
-39 -59 -92 0
-39 -59 -93 0
-39 -59 -94 0
-39 -59 -95 0
-39 -74 -92 0
-39 -74 -93 0
-39 -74 -94 0
-39 -74 -95 0
-39 -92 -93 0
-39 -92 -94 0
-39 -92 -95 0
-39 -93 -94 0
-39 -93 -95 0
-39 -94 -95 0
-46 -59 -74 0
-46 -59 -92 0
-46 -59 -93 0
-46 -59 -94 0
-46 -59 -95 0
-46 -74 -92 0
-46 -74 -93 0
-46 -74 -94 0
-46 -74 -95 0
-46 -92 -93 0
-46 -92 -94 0
-46 -92 -95 0
-46 -93 -94 0
-46 -93 -95 0
-46 -94 -95 0
-59 -74 -92 0
-59 -74 -93 0
-59 -74 -94 0
-59 -74 -95 0
-59 -92 -93 0
-59 -92 -94 0
-59 -92 -95 0
-59 -93 -94 0
-59 -93 -95 0
-59 -94 -95 0
-74 -92 -93 0
-74 -92 -94 0
-74 -92 -95 0
-74 -93 -94 0
-74 -93 -95 0
-74 -94 -95 0
-92 -93 -94 0
-92 -93 -95 0
-92 -94 -95 0
-93 -94 -95 0
46 59 74 92 93 94 95 0
39 59 74 92 93 94 95 0
39 46 74 92 93 94 95 0
39 46 59 92 93 94 95 0
39 46 59 74 93 94 95 0
39 46 59 74 92 94 95 0
39 46 59 74 92 93 95 0
39 46 59 74 92 93 94 0
-43 -49 -63 0
-43 -49 -77 0
-43 -49 -96 0
-43 -49 -97 0
-43 -49 -98 0
-43 -49 -99 0
-43 -63 -77 0
-43 -63 -96 0
-43 -63 -97 0
-43 -63 -98 0
-43 -63 -99 0
-43 -77 -96 0
-43 -77 -97 0
-43 -77 -98 0
-43 -77 -99 0
-43 -96 -97 0
-43 -96 -98 0
-43 -96 -99 0
-43 -97 -98 0
-43 -97 -99 0
-43 -98 -99 0
-49 -63 -77 0
-49 -63 -96 0
-49 -63 -97 0
-49 -63 -98 0
-49 -63 -99 0
-49 -77 -96 0
-49 -77 -97 0
-49 -77 -98 0
-49 -77 -99 0
-49 -96 -97 0
-49 -96 -98 0
-49 -96 -99 0
-49 -97 -98 0
-49 -97 -99 0
-49 -98 -99 0
-63 -77 -96 0
-63 -77 -97 0
-63 -77 -98 0
-63 -77 -99 0
-63 -96 -97 0
-63 -96 -98 0
-63 -96 -99 0
-63 -97 -98 0
-63 -97 -99 0
-63 -98 -99 0
-77 -96 -97 0
-77 -96 -98 0
-77 -96 -99 0
-77 -97 -98 0
-77 -97 -99 0
-77 -98 -99 0
-96 -97 -98 0
-96 -97 -99 0
-96 -98 -99 0
-97 -98 -99 0
49 63 77 96 97 98 99 0
43 63 77 96 97 98 99 0
43 49 77 96 97 98 99 0
43 49 63 96 97 98 99 0
43 49 63 77 97 98 99 0
43 49 63 77 96 98 99 0
43 49 63 77 96 97 99 0
43 49 63 77 96 97 98 0
-47 -52 -67 0
-47 -52 -100 0
-47 -52 -101 0
-47 -52 -102 0
-47 -67 -100 0
-47 -67 -101 0
-47 -67 -102 0
-47 -100 -101 0
-47 -100 -102 0
-47 -101 -102 0
-52 -67 -100 0
-52 -67 -101 0
-52 -67 -102 0
-52 -100 -101 0
-52 -100 -102 0
-52 -101 -102 0
-67 -100 -101 0
-67 -100 -102 0
-67 -101 -102 0
-100 -101 -102 0
52 67 100 101 102 0
47 67 100 101 102 0
47 52 100 101 102 0
47 52 67 101 102 0
47 52 67 100 102 0
47 52 67 100 101 0
-50 -71 -103 0
-50 -71 -104 0
-50 -103 -104 0
-71 -103 -104 0
71 103 104 0
50 103 104 0
50 71 104 0
50 71 103 0
-56 -84 -105 0
-56 -84 -106 0
-56 -105 -106 0
-84 -105 -106 0
84 105 106 0
56 105 106 0
56 84 106 0
56 84 105 0
-54 -60 -88 0
-54 -60 -107 0
-54 -60 -108 0
-54 -60 -109 0
-54 -88 -107 0
-54 -88 -108 0
-54 -88 -109 0
-54 -107 -108 0
-54 -107 -109 0
-54 -108 -109 0
-60 -88 -107 0
-60 -88 -108 0
-60 -88 -109 0
-60 -107 -108 0
-60 -107 -109 0
-60 -108 -109 0
-88 -107 -108 0
-88 -107 -109 0
-88 -108 -109 0
-107 -108 -109 0
60 88 107 108 109 0
54 88 107 108 109 0
54 60 107 108 109 0
54 60 88 108 109 0
54 60 88 107 109 0
54 60 88 107 108 0
-57 -64 -79 0
-57 -64 -92 0
-57 -64 -110 0
-57 -64 -111 0
-57 -64 -112 0
-57 -64 -113 0
-57 -79 -92 0
-57 -79 -110 0
-57 -79 -111 0
-57 -79 -112 0
-57 -79 -113 0
-57 -92 -110 0
-57 -92 -111 0
-57 -92 -112 0
-57 -92 -113 0
-57 -110 -111 0
-57 -110 -112 0
-57 -110 -113 0
-57 -111 -112 0
-57 -111 -113 0
-57 -112 -113 0
-64 -79 -92 0
-64 -79 -110 0
-64 -79 -111 0
-64 -79 -112 0
-64 -79 -113 0
-64 -92 -110 0
-64 -92 -111 0
-64 -92 -112 0
-64 -92 -113 0
-64 -110 -111 0
-64 -110 -112 0
-64 -110 -113 0
-64 -111 -112 0
-64 -111 -113 0
-64 -112 -113 0
-79 -92 -110 0
-79 -92 -111 0
-79 -92 -112 0
-79 -92 -113 0
-79 -110 -111 0
-79 -110 -112 0
-79 -110 -113 0
-79 -111 -112 0
-79 -111 -113 0
-79 -112 -113 0
-92 -110 -111 0
-92 -110 -112 0
-92 -110 -113 0
-92 -111 -112 0
-92 -111 -113 0
-92 -112 -113 0
-110 -111 -112 0
-110 -111 -113 0
-110 -112 -113 0
-111 -112 -113 0
64 79 92 110 111 112 113 0
57 79 92 110 111 112 113 0
57 64 92 110 111 112 113 0
57 64 79 110 111 112 113 0
57 64 79 92 111 112 113 0
57 64 79 92 110 112 113 0
57 64 79 92 110 111 113 0
57 64 79 92 110 111 112 0
-61 -68 -81 0
-61 -68 -96 0
-61 -68 -114 0
-61 -68 -115 0
-61 -68 -116 0
-61 -68 -117 0
-61 -81 -96 0
-61 -81 -114 0
-61 -81 -115 0
-61 -81 -116 0
-61 -81 -117 0
-61 -96 -114 0
-61 -96 -115 0
-61 -96 -116 0
-61 -96 -117 0
-61 -114 -115 0
-61 -114 -116 0
-61 -114 -117 0
-61 -115 -116 0
-61 -115 -117 0
-61 -116 -117 0
-68 -81 -96 0
-68 -81 -114 0
-68 -81 -115 0
-68 -81 -116 0
-68 -81 -117 0
-68 -96 -114 0
-68 -96 -115 0
-68 -96 -116 0
-68 -96 -117 0
-68 -114 -115 0
-68 -114 -116 0
-68 -114 -117 0
-68 -115 -116 0
-68 -115 -117 0
-68 -116 -117 0
-81 -96 -114 0
-81 -96 -115 0
-81 -96 -116 0
-81 -96 -117 0
-81 -114 -115 0
-81 -114 -116 0
-81 -114 -117 0
-81 -115 -116 0
-81 -115 -117 0
-81 -116 -117 0
-96 -114 -115 0
-96 -114 -116 0
-96 -114 -117 0
-96 -115 -116 0
-96 -115 -117 0
-96 -116 -117 0
-114 -115 -116 0
-114 -115 -117 0
-114 -116 -117 0
-115 -116 -117 0
68 81 96 114 115 116 117 0
61 81 96 114 115 116 117 0
61 68 96 114 115 116 117 0
61 68 81 114 115 116 117 0
61 68 81 96 115 116 117 0
61 68 81 96 114 116 117 0
61 68 81 96 114 115 117 0
61 68 81 96 114 115 116 0
-65 -72 -85 0
-65 -72 -100 0
-65 -72 -118 0
-65 -72 -119 0
-65 -72 -120 0
-65 -72 -121 0
-65 -85 -100 0
-65 -85 -118 0
-65 -85 -119 0
-65 -85 -120 0
-65 -85 -121 0
-65 -100 -118 0
-65 -100 -119 0
-65 -100 -120 0
-65 -100 -121 0
-65 -118 -119 0
-65 -118 -120 0
-65 -118 -121 0
-65 -119 -120 0
-65 -119 -121 0
-65 -120 -121 0
-72 -85 -100 0
-72 -85 -118 0
-72 -85 -119 0
-72 -85 -120 0
-72 -85 -121 0
-72 -100 -118 0
-72 -100 -119 0
-72 -100 -120 0
-72 -100 -121 0
-72 -118 -119 0
-72 -118 -120 0
-72 -118 -121 0
-72 -119 -120 0
-72 -119 -121 0
-72 -120 -121 0
-85 -100 -118 0
-85 -100 -119 0
-85 -100 -120 0
-85 -100 -121 0
-85 -118 -119 0
-85 -118 -120 0
-85 -118 -121 0
-85 -119 -120 0
-85 -119 -121 0
-85 -120 -121 0
-100 -118 -119 0
-100 -118 -120 0
-100 -118 -121 0
-100 -119 -120 0
-100 -119 -121 0
-100 -120 -121 0
-118 -119 -120 0
-118 -119 -121 0
-118 -120 -121 0
-119 -120 -121 0
72 85 100 118 119 120 121 0
65 85 100 118 119 120 121 0
65 72 100 118 119 120 121 0
65 72 85 118 119 120 121 0
65 72 85 100 119 120 121 0
65 72 85 100 118 120 121 0
65 72 85 100 118 119 121 0
65 72 85 100 118 119 120 0
-69 -75 -89 0
-69 -75 -103 0
-69 -75 -122 0
-69 -75 -123 0
-69 -75 -124 0
-69 -75 -125 0
-69 -89 -103 0
-69 -89 -122 0
-69 -89 -123 0
-69 -89 -124 0
-69 -89 -125 0
-69 -103 -122 0
-69 -103 -123 0
-69 -103 -124 0
-69 -103 -125 0
-69 -122 -123 0
-69 -122 -124 0
-69 -122 -125 0
-69 -123 -124 0
-69 -123 -125 0
-69 -124 -125 0
-75 -89 -103 0
-75 -89 -122 0
-75 -89 -123 0
-75 -89 -124 0
-75 -89 -125 0
-75 -103 -122 0
-75 -103 -123 0
-75 -103 -124 0
-75 -103 -125 0
-75 -122 -123 0
-75 -122 -124 0
-75 -122 -125 0
-75 -123 -124 0
-75 -123 -125 0
-75 -124 -125 0
-89 -103 -122 0
-89 -103 -123 0
-89 -103 -124 0
-89 -103 -125 0
-89 -122 -123 0
-89 -122 -124 0
-89 -122 -125 0
-89 -123 -124 0
-89 -123 -125 0
-89 -124 -125 0
-103 -122 -123 0
-103 -122 -124 0
-103 -122 -125 0
-103 -123 -124 0
-103 -123 -125 0
-103 -124 -125 0
-122 -123 -124 0
-122 -123 -125 0
-122 -124 -125 0
-123 -124 -125 0
75 89 103 122 123 124 125 0
69 89 103 122 123 124 125 0
69 75 103 122 123 124 125 0
69 75 89 122 123 124 125 0
69 75 89 103 123 124 125 0
69 75 89 103 122 124 125 0
69 75 89 103 122 123 125 0
69 75 89 103 122 123 124 0
-73 -78 -93 0
-73 -78 -126 0
-73 -78 -127 0
-73 -78 -128 0
-73 -93 -126 0
-73 -93 -127 0
-73 -93 -128 0
-73 -126 -127 0
-73 -126 -128 0
-73 -127 -128 0
-78 -93 -126 0
-78 -93 -127 0
-78 -93 -128 0
-78 -126 -127 0
-78 -126 -128 0
-78 -127 -128 0
-93 -126 -127 0
-93 -126 -128 0
-93 -127 -128 0
-126 -127 -128 0
78 93 126 127 128 0
73 93 126 127 128 0
73 78 126 127 128 0
73 78 93 127 128 0
73 78 93 126 128 0
73 78 93 126 127 0
-76 -97 -129 0
-76 -97 -130 0
-76 -129 -130 0
-97 -129 -130 0
97 129 130 0
76 129 130 0
76 97 130 0
76 97 129 0
-82 -110 -131 0
-82 -110 -132 0
-82 -131 -132 0
-110 -131 -132 0
110 131 132 0
82 131 132 0
82 110 132 0
82 110 131 0
-80 -86 -114 0
-80 -86 -133 0
-80 -86 -134 0
-80 -86 -135 0
-80 -114 -133 0
-80 -114 -134 0
-80 -114 -135 0
-80 -133 -134 0
-80 -133 -135 0
-80 -134 -135 0
-86 -114 -133 0
-86 -114 -134 0
-86 -114 -135 0
-86 -133 -134 0
-86 -133 -135 0
-86 -134 -135 0
-114 -133 -134 0
-114 -133 -135 0
-114 -134 -135 0
-133 -134 -135 0
86 114 133 134 135 0
80 114 133 134 135 0
80 86 133 134 135 0
80 86 114 134 135 0
80 86 114 133 135 0
80 86 114 133 134 0
-83 -90 -105 0
-83 -90 -118 0
-83 -90 -136 0
-83 -90 -137 0
-83 -90 -138 0
-83 -90 -139 0
-83 -105 -118 0
-83 -105 -136 0
-83 -105 -137 0
-83 -105 -138 0
-83 -105 -139 0
-83 -118 -136 0
-83 -118 -137 0
-83 -118 -138 0
-83 -118 -139 0
-83 -136 -137 0
-83 -136 -138 0
-83 -136 -139 0
-83 -137 -138 0
-83 -137 -139 0
-83 -138 -139 0
-90 -105 -118 0
-90 -105 -136 0
-90 -105 -137 0
-90 -105 -138 0
-90 -105 -139 0
-90 -118 -136 0
-90 -118 -137 0
-90 -118 -138 0
-90 -118 -139 0
-90 -136 -137 0
-90 -136 -138 0
-90 -136 -139 0
-90 -137 -138 0
-90 -137 -139 0
-90 -138 -139 0
-105 -118 -136 0
-105 -118 -137 0
-105 -118 -138 0
-105 -118 -139 0
-105 -136 -137 0
-105 -136 -138 0
-105 -136 -139 0
-105 -137 -138 0
-105 -137 -139 0
-105 -138 -139 0
-118 -136 -137 0
-118 -136 -138 0
-118 -136 -139 0
-118 -137 -138 0
-118 -137 -139 0
-118 -138 -139 0
-136 -137 -138 0
-136 -137 -139 0
-136 -138 -139 0
-137 -138 -139 0
90 105 118 136 137 138 139 0
83 105 118 136 137 138 139 0
83 90 118 136 137 138 139 0
83 90 105 136 137 138 139 0
83 90 105 118 137 138 139 0
83 90 105 118 136 138 139 0
83 90 105 118 136 137 139 0
83 90 105 118 136 137 138 0
-87 -94 -107 0
-87 -94 -122 0
-87 -94 -140 0
-87 -94 -141 0
-87 -94 -142 0
-87 -94 -143 0
-87 -107 -122 0
-87 -107 -140 0
-87 -107 -141 0
-87 -107 -142 0
-87 -107 -143 0
-87 -122 -140 0
-87 -122 -141 0
-87 -122 -142 0
-87 -122 -143 0
-87 -140 -141 0
-87 -140 -142 0
-87 -140 -143 0
-87 -141 -142 0
-87 -141 -143 0
-87 -142 -143 0
-94 -107 -122 0
-94 -107 -140 0
-94 -107 -141 0
-94 -107 -142 0
-94 -107 -143 0
-94 -122 -140 0
-94 -122 -141 0
-94 -122 -142 0
-94 -122 -143 0
-94 -140 -141 0
-94 -140 -142 0
-94 -140 -143 0
-94 -141 -142 0
-94 -141 -143 0
-94 -142 -143 0
-107 -122 -140 0
-107 -122 -141 0
-107 -122 -142 0
-107 -122 -143 0
-107 -140 -141 0
-107 -140 -142 0
-107 -140 -143 0
-107 -141 -142 0
-107 -141 -143 0
-107 -142 -143 0
-122 -140 -141 0
-122 -140 -142 0
-122 -140 -143 0
-122 -141 -142 0
-122 -141 -143 0
-122 -142 -143 0
-140 -141 -142 0
-140 -141 -143 0
-140 -142 -143 0
-141 -142 -143 0
94 107 122 140 141 142 143 0
87 107 122 140 141 142 143 0
87 94 122 140 141 142 143 0
87 94 107 140 141 142 143 0
87 94 107 122 141 142 143 0
87 94 107 122 140 142 143 0
87 94 107 122 140 141 143 0
87 94 107 122 140 141 142 0
-91 -98 -111 0
-91 -98 -126 0
-91 -98 -144 0
-91 -98 -145 0
-91 -98 -146 0
-91 -98 -147 0
-91 -111 -126 0
-91 -111 -144 0
-91 -111 -145 0
-91 -111 -146 0
-91 -111 -147 0
-91 -126 -144 0
-91 -126 -145 0
-91 -126 -146 0
-91 -126 -147 0
-91 -144 -145 0
-91 -144 -146 0
-91 -144 -147 0
-91 -145 -146 0
-91 -145 -147 0
-91 -146 -147 0
-98 -111 -126 0
-98 -111 -144 0
-98 -111 -145 0
-98 -111 -146 0
-98 -111 -147 0
-98 -126 -144 0
-98 -126 -145 0
-98 -126 -146 0
-98 -126 -147 0
-98 -144 -145 0
-98 -144 -146 0
-98 -144 -147 0
-98 -145 -146 0
-98 -145 -147 0
-98 -146 -147 0
-111 -126 -144 0
-111 -126 -145 0
-111 -126 -146 0
-111 -126 -147 0
-111 -144 -145 0
-111 -144 -146 0
-111 -144 -147 0
-111 -145 -146 0
-111 -145 -147 0
-111 -146 -147 0
-126 -144 -145 0
-126 -144 -146 0
-126 -144 -147 0
-126 -145 -146 0
-126 -145 -147 0
-126 -146 -147 0
-144 -145 -146 0
-144 -145 -147 0
-144 -146 -147 0
-145 -146 -147 0
98 111 126 144 145 146 147 0
91 111 126 144 145 146 147 0
91 98 126 144 145 146 147 0
91 98 111 144 145 146 147 0
91 98 111 126 145 146 147 0
91 98 111 126 144 146 147 0
91 98 111 126 144 145 147 0
91 98 111 126 144 145 146 0
-95 -101 -115 0
-95 -101 -129 0
-95 -101 -148 0
-95 -101 -149 0
-95 -101 -150 0
-95 -101 -151 0
-95 -115 -129 0
-95 -115 -148 0
-95 -115 -149 0
-95 -115 -150 0
-95 -115 -151 0
-95 -129 -148 0
-95 -129 -149 0
-95 -129 -150 0
-95 -129 -151 0
-95 -148 -149 0
-95 -148 -150 0
-95 -148 -151 0
-95 -149 -150 0
-95 -149 -151 0
-95 -150 -151 0
-101 -115 -129 0
-101 -115 -148 0
-101 -115 -149 0
-101 -115 -150 0
-101 -115 -151 0
-101 -129 -148 0
-101 -129 -149 0
-101 -129 -150 0
-101 -129 -151 0
-101 -148 -149 0
-101 -148 -150 0
-101 -148 -151 0
-101 -149 -150 0
-101 -149 -151 0
-101 -150 -151 0
-115 -129 -148 0
-115 -129 -149 0
-115 -129 -150 0
-115 -129 -151 0
-115 -148 -149 0
-115 -148 -150 0
-115 -148 -151 0
-115 -149 -150 0
-115 -149 -151 0
-115 -150 -151 0
-129 -148 -149 0
-129 -148 -150 0
-129 -148 -151 0
-129 -149 -150 0
-129 -149 -151 0
-129 -150 -151 0
-148 -149 -150 0
-148 -149 -151 0
-148 -150 -151 0
-149 -150 -151 0
101 115 129 148 149 150 151 0
95 115 129 148 149 150 151 0
95 101 129 148 149 150 151 0
95 101 115 148 149 150 151 0
95 101 115 129 149 150 151 0
95 101 115 129 148 150 151 0
95 101 115 129 148 149 151 0
95 101 115 129 148 149 150 0
-99 -104 -119 0
-99 -104 -152 0
-99 -104 -153 0
-99 -104 -154 0
-99 -119 -152 0
-99 -119 -153 0
-99 -119 -154 0
-99 -152 -153 0
-99 -152 -154 0
-99 -153 -154 0
-104 -119 -152 0
-104 -119 -153 0
-104 -119 -154 0
-104 -152 -153 0
-104 -152 -154 0
-104 -153 -154 0
-119 -152 -153 0
-119 -152 -154 0
-119 -153 -154 0
-152 -153 -154 0
104 119 152 153 154 0
99 119 152 153 154 0
99 104 152 153 154 0
99 104 119 153 154 0
99 104 119 152 154 0
99 104 119 152 153 0
-102 -123 -155 0
-102 -123 -156 0
-102 -155 -156 0
-123 -155 -156 0
123 155 156 0
102 155 156 0
102 123 156 0
102 123 155 0
-108 -136 -157 0
136 157 0
108 157 0
108 136 0
-106 -112 -140 0
-106 -112 -158 0
-106 -140 -158 0
-112 -140 -158 0
112 140 158 0
106 140 158 0
106 112 158 0
106 112 140 0
-109 -116 -131 0
-109 -116 -144 0
-109 -116 -159 0
-109 -116 -160 0
-109 -131 -144 0
-109 -131 -159 0
-109 -131 -160 0
-109 -144 -159 0
-109 -144 -160 0
-109 -159 -160 0
-116 -131 -144 0
-116 -131 -159 0
-116 -131 -160 0
-116 -144 -159 0
-116 -144 -160 0
-116 -159 -160 0
-131 -144 -159 0
-131 -144 -160 0
-131 -159 -160 0
-144 -159 -160 0
116 131 144 159 160 0
109 131 144 159 160 0
109 116 144 159 160 0
109 116 131 159 160 0
109 116 131 144 160 0
109 116 131 144 159 0
-113 -120 -133 0
-113 -120 -148 0
-113 -120 -161 0
-113 -120 -162 0
-113 -133 -148 0
-113 -133 -161 0
-113 -133 -162 0
-113 -148 -161 0
-113 -148 -162 0
-113 -161 -162 0
-120 -133 -148 0
-120 -133 -161 0
-120 -133 -162 0
-120 -148 -161 0
-120 -148 -162 0
-120 -161 -162 0
-133 -148 -161 0
-133 -148 -162 0
-133 -161 -162 0
-148 -161 -162 0
120 133 148 161 162 0
113 133 148 161 162 0
113 120 148 161 162 0
113 120 133 161 162 0
113 120 133 148 162 0
113 120 133 148 161 0
-117 -124 -137 0
-117 -124 -152 0
-117 -124 -163 0
-117 -124 -164 0
-117 -137 -152 0
-117 -137 -163 0
-117 -137 -164 0
-117 -152 -163 0
-117 -152 -164 0
-117 -163 -164 0
-124 -137 -152 0
-124 -137 -163 0
-124 -137 -164 0
-124 -152 -163 0
-124 -152 -164 0
-124 -163 -164 0
-137 -152 -163 0
-137 -152 -164 0
-137 -163 -164 0
-152 -163 -164 0
124 137 152 163 164 0
117 137 152 163 164 0
117 124 152 163 164 0
117 124 137 163 164 0
117 124 137 152 164 0
117 124 137 152 163 0
-121 -127 -141 0
-121 -127 -155 0
-121 -127 -165 0
-121 -127 -166 0
-121 -141 -155 0
-121 -141 -165 0
-121 -141 -166 0
-121 -155 -165 0
-121 -155 -166 0
-121 -165 -166 0
-127 -141 -155 0
-127 -141 -165 0
-127 -141 -166 0
-127 -155 -165 0
-127 -155 -166 0
-127 -165 -166 0
-141 -155 -165 0
-141 -155 -166 0
-141 -165 -166 0
-155 -165 -166 0
127 141 155 165 166 0
121 141 155 165 166 0
121 127 155 165 166 0
121 127 141 165 166 0
121 127 141 155 166 0
121 127 141 155 165 0
-125 -130 -145 0
-125 -130 -167 0
-125 -145 -167 0
-130 -145 -167 0
130 145 167 0
125 145 167 0
125 130 167 0
125 130 145 0
-128 -149 -168 0
149 168 0
128 168 0
128 149 0
159 0
134 0
-132 -138 -161 0
138 161 0
132 161 0
132 138 0
-135 -142 -157 0
-135 -142 -163 0
-135 -157 -163 0
-142 -157 -163 0
142 157 163 0
135 157 163 0
135 142 163 0
135 142 157 0
-139 -146 -158 0
-139 -146 -165 0
-139 -158 -165 0
-146 -158 -165 0
146 158 165 0
139 158 165 0
139 146 165 0
139 146 158 0
-143 -150 -160 0
-143 -150 -167 0
-143 -160 -167 0
-150 -160 -167 0
150 160 167 0
143 160 167 0
143 150 167 0
143 150 160 0
-147 -153 -162 0
-147 -153 -168 0
-147 -162 -168 0
-153 -162 -168 0
153 162 168 0
147 162 168 0
147 153 168 0
147 153 162 0
-151 -156 -164 0
156 164 0
151 164 0
151 156 0
166 0
154 0
